p edge 40 130
e 1 6
e 1 15
e 1 18
e 1 22
e 1 24
e 1 25
e 1 32
e 1 34
e 2 15
e 2 22
e 2 25
e 2 27
e 2 28
e 2 30
e 2 40
e 3 7
e 3 19
e 3 28
e 3 35
e 3 36
e 3 40
e 4 6
e 4 7
e 4 10
e 4 12
e 4 17
e 4 21
e 4 22
e 4 25
e 4 32
e 4 35
e 5 8
e 5 13
e 5 21
e 5 25
e 5 30
e 5 31
e 5 32
e 5 34
e 5 39
e 6 14
e 6 17
e 6 20
e 6 25
e 6 31
e 6 36
e 6 40
e 7 26
e 7 35
e 7 37
e 7 39
e 8 10
e 8 11
e 8 16
e 8 19
e 8 31
e 8 32
e 8 40
e 9 10
e 9 17
e 9 19
e 9 23
e 9 33
e 9 34
e 9 36
e 9 40
e 10 11
e 10 32
e 10 40
e 11 33
e 11 35
e 11 40
e 12 19
e 12 21
e 12 26
e 13 26
e 13 28
e 13 35
e 13 40
e 14 22
e 14 27
e 14 34
e 15 17
e 16 22
e 16 28
e 16 31
e 16 33
e 16 36
e 16 37
e 17 28
e 18 37
e 18 39
e 19 21
e 19 22
e 19 26
e 19 29
e 19 33
e 19 34
e 20 21
e 20 22
e 20 24
e 21 33
e 22 23
e 22 25
e 22 27
e 22 30
e 23 31
e 23 37
e 23 39
e 24 28
e 24 38
e 25 28
e 25 30
e 26 29
e 26 32
e 27 28
e 27 32
e 27 33
e 28 40
e 30 31
e 30 34
e 30 39
e 30 40
e 33 34
e 33 35
e 34 35
e 34 38
e 34 39
e 35 38
e 35 40
